unsat
(:SPACER-inductive-gen                13
 :SPACER-inductive-gen-weaken-fail    19
 :SPACER-inductive-level              2
 :SPACER-max-depth                    4
 :SPACER-max-query-lvl                4
 :SPACER-num-active-lemmas            11
 :SPACER-num-ctp-blocked              4
 :SPACER-num-invariants               9
 :SPACER-num-is_invariant             27
 :SPACER-num-lemmas                   18
 :SPACER-num-pobs                     7
 :SPACER-num-propagations             10
 :SPACER-num-queries                  13
 :added-eqs                           1664
 :arith-assert-diseq                  446
 :arith-assert-lower                  2240
 :arith-assert-upper                  1450
 :arith-bound-prop                    268
 :arith-conflicts                     50
 :arith-eq-adapter                    556
 :arith-fixed-eqs                     318
 :arith-num-rows                      68
 :arith-offset-eqs                    140
 :arith-pivots                        388
 :arith-row-summations                2364
 :arith-tableau-max-columns           116
 :arith-tableau-max-rows              68
 :conflicts                           206
 :decisions                           2006
 :del-clause                          336
 :final-checks                        76
 :iuc_solver.num_proxies              41
 :max-memory                          31.22
 :memory                              30.78
 :minimized-lits                      54
 :mk-bool-var                         994
 :mk-clause                           1032
 :num-allocs                          8834691
 :num-checks                          186
 :pool_solver.checks                  93
 :pool_solver.checks.sat              35
 :pool_solver.checks.undef            3
 :propagations                        7404
 :rlimit-count                        71223
 :time                                0.07
 :time.iuc_solver.get_iuc             0.01
 :time.iuc_solver.get_iuc.hyp_reduce1 0.00
 :time.iuc_solver.get_iuc.hyp_reduce2 0.00
 :time.iuc_solver.get_iuc.learn_core  0.00
 :time.pool_solver.proof              0.00
 :time.pool_solver.smt.total          0.03
 :time.pool_solver.smt.total.sat      0.01
 :time.pool_solver.smt.total.undef    0.00
 :time.spacer.init_rules              0.00
 :time.spacer.mbp                     0.00
 :time.spacer.solve                   0.05
 :time.spacer.solve.propagate         0.01
 :time.spacer.solve.reach             0.04
 :time.spacer.solve.reach.children    0.00
 :time.spacer.solve.reach.cluster     0.00
 :time.spacer.solve.reach.gen.ind     0.01)
(:max-memory   31.22
 :memory       30.78
 :num-allocs   8834691
 :rlimit-count 71223
 :time         0.07
 :total-time   0.09)
